# Ga8 O12
1.000000
     12.45244600        0.00000000        0.00000000
      0.00000000       12.33187200        0.00000000
     -2.78012600        0.00000000       11.41874000
 Ga  O
    64      96
Cartesian
      1.53599820        1.54148400        1.79321035
      3.30016180        0.00000000        3.91615965
      0.01443308        0.00000000        4.53758461
      4.82172692        1.54148400        1.17178539
      7.76222120        0.00000000        1.79321035
      9.52638480        1.54148400        3.91615965
      6.24065608        1.54148400        4.53758461
     11.04794992        0.00000000        1.17178539
      1.53599820        4.62445200        1.79321035
      3.30016180        3.08296800        3.91615965
      0.01443308        3.08296800        4.53758461
      4.82172692        4.62445200        1.17178539
      7.76222120        3.08296800        1.79321035
      9.52638480        4.62445200        3.91615965
      6.24065608        4.62445200        4.53758461
     11.04794992        3.08296800        1.17178539
      1.53599820        7.70742000        1.79321035
      3.30016180        6.16593600        3.91615965
      0.01443308        6.16593600        4.53758461
      4.82172692        7.70742000        1.17178539
      7.76222120        6.16593600        1.79321035
      9.52638480        7.70742000        3.91615965
      6.24065608        7.70742000        4.53758461
     11.04794992        6.16593600        1.17178539
      1.53599820       10.79038800        1.79321035
      3.30016180        9.24890400        3.91615965
      0.01443308        9.24890400        4.53758461
      4.82172692       10.79038800        1.17178539
      7.76222120        9.24890400        1.79321035
      9.52638480       10.79038800        3.91615965
      6.24065608       10.79038800        4.53758461
     11.04794992        9.24890400        1.17178539
      0.14593520        1.54148400        7.50258035
      1.91009880        0.00000000        9.62552965
     -1.37562992        0.00000000       10.24695461
      3.43166392        1.54148400        6.88115539
      6.37215820        0.00000000        7.50258035
      8.13632180        1.54148400        9.62552965
      4.85059308        1.54148400       10.24695461
      9.65788692        0.00000000        6.88115539
      0.14593520        4.62445200        7.50258035
      1.91009880        3.08296800        9.62552965
     -1.37562992        3.08296800       10.24695461
      3.43166392        4.62445200        6.88115539
      6.37215820        3.08296800        7.50258035
      8.13632180        4.62445200        9.62552965
      4.85059308        4.62445200       10.24695461
      9.65788692        3.08296800        6.88115539
      0.14593520        7.70742000        7.50258035
      1.91009880        6.16593600        9.62552965
     -1.37562992        6.16593600       10.24695461
      3.43166392        7.70742000        6.88115539
      6.37215820        6.16593600        7.50258035
      8.13632180        7.70742000        9.62552965
      4.85059308        7.70742000       10.24695461
      9.65788692        6.16593600        6.88115539
      0.14593520       10.79038800        7.50258035
      1.91009880        9.24890400        9.62552965
     -1.37562992        9.24890400       10.24695461
      3.43166392       10.79038800        6.88115539
      6.37215820        9.24890400        7.50258035
      8.13632180       10.79038800        9.62552965
      4.85059308       10.79038800       10.24695461
      9.65788692        9.24890400        6.88115539
      5.81859197        0.00000000        1.46440202
     -0.98243196        1.54148400        4.24496798
      1.37731551        0.00000000        3.22176323
      3.45884449        1.54148400        2.48760676
      2.95159926        1.54148400        5.08731701
      1.88456074        0.00000000        0.62205299
     12.04481497        1.54148400        1.46440202
      5.24379104        0.00000000        4.24496798
      7.60353851        1.54148400        3.22176323
      9.68506749        0.00000000        2.48760676
      9.17782226        0.00000000        5.08731701
      8.11078374        1.54148400        0.62205299
      5.81859197        3.08296800        1.46440202
     -0.98243196        4.62445200        4.24496798
      1.37731551        3.08296800        3.22176323
      3.45884449        4.62445200        2.48760676
      2.95159926        4.62445200        5.08731701
      1.88456074        3.08296800        0.62205299
     12.04481497        4.62445200        1.46440202
      5.24379104        3.08296800        4.24496798
      7.60353851        4.62445200        3.22176323
      9.68506749        3.08296800        2.48760676
      9.17782226        3.08296800        5.08731701
      8.11078374        4.62445200        0.62205299
      5.81859197        6.16593600        1.46440202
     -0.98243196        7.70742000        4.24496798
      1.37731551        6.16593600        3.22176323
      3.45884449        7.70742000        2.48760676
      2.95159926        7.70742000        5.08731701
      1.88456074        6.16593600        0.62205299
     12.04481497        7.70742000        1.46440202
      5.24379104        6.16593600        4.24496798
      7.60353851        7.70742000        3.22176323
      9.68506749        6.16593600        2.48760676
      9.17782226        6.16593600        5.08731701
      8.11078374        7.70742000        0.62205299
      5.81859197        9.24890400        1.46440202
     -0.98243196       10.79038800        4.24496798
      1.37731551        9.24890400        3.22176323
      3.45884449       10.79038800        2.48760676
      2.95159926       10.79038800        5.08731701
      1.88456074        9.24890400        0.62205299
     12.04481497       10.79038800        1.46440202
      5.24379104        9.24890400        4.24496798
      7.60353851       10.79038800        3.22176323
      9.68506749        9.24890400        2.48760676
      9.17782226        9.24890400        5.08731701
      8.11078374       10.79038800        0.62205299
      4.42852897        0.00000000        7.17377202
     -2.37249496        1.54148400        9.95433798
     -0.01274749        0.00000000        8.93113323
      2.06878149        1.54148400        8.19697676
      1.56153626        1.54148400       10.79668701
      0.49449774        0.00000000        6.33142299
     10.65475197        1.54148400        7.17377202
      3.85372804        0.00000000        9.95433798
      6.21347551        1.54148400        8.93113323
      8.29500449        0.00000000        8.19697676
      7.78775926        0.00000000       10.79668701
      6.72072074        1.54148400        6.33142299
      4.42852897        3.08296800        7.17377202
     -2.37249496        4.62445200        9.95433798
     -0.01274749        3.08296800        8.93113323
      2.06878149        4.62445200        8.19697676
      1.56153626        4.62445200       10.79668701
      0.49449774        3.08296800        6.33142299
     10.65475197        4.62445200        7.17377202
      3.85372804        3.08296800        9.95433798
      6.21347551        4.62445200        8.93113323
      8.29500449        3.08296800        8.19697676
      7.78775926        3.08296800       10.79668701
      6.72072074        4.62445200        6.33142299
      4.42852897        6.16593600        7.17377202
     -2.37249496        7.70742000        9.95433798
     -0.01274749        6.16593600        8.93113323
      2.06878149        7.70742000        8.19697676
      1.56153626        7.70742000       10.79668701
      0.49449774        6.16593600        6.33142299
     10.65475197        7.70742000        7.17377202
      3.85372804        6.16593600        9.95433798
      6.21347551        7.70742000        8.93113323
      8.29500449        6.16593600        8.19697676
      7.78775926        6.16593600       10.79668701
      6.72072074        7.70742000        6.33142299
      4.42852897        9.24890400        7.17377202
     -2.37249496       10.79038800        9.95433798
     -0.01274749        9.24890400        8.93113323
      2.06878149       10.79038800        8.19697676
      1.56153626       10.79038800       10.79668701
      0.49449774        9.24890400        6.33142299
     10.65475197       10.79038800        7.17377202
      3.85372804        9.24890400        9.95433798
      6.21347551       10.79038800        8.93113323
      8.29500449        9.24890400        8.19697676
      7.78775926        9.24890400       10.79668701
      6.72072074       10.79038800        6.33142299
