# Si3 O6
1.000000
      5.02778205        0.00000000        0.00000000
     -2.51389108        4.35418695        0.00000000
      0.00000000        0.00000000        5.51891800
 Si  O
     3       6
Cartesian
      1.31403595        2.27597706        0.00000000
      2.39971009        0.00000000        3.67928051
     -1.19985507        2.07820989        1.83963749
      0.83125824        3.65429494        4.80513978
     -1.06645295        3.24693462        2.96549677
      0.23518705        1.80714869        1.12585927
      2.74908310        2.54703826        0.71377822
      3.34515433        0.69989201        2.55342123
      1.44744313        1.10725232        4.39305873
